NAME: random-15-20203
TYPE: TSP
COMMENT: size=15 seed=20203
DIMENSION: 32
EDGE_WEIGHT_TYPE: EUC_2D
NODE_COORD_SECTION
+0 821 468
-0 821 468
+1 129 535
-1 782 629
+2 588 626
-2 11 524
+3 687 920
-3 601 562
+4 708 702
-4 858 786
+5 711 829
-5 274 212
+6 215 84
-6 618 917
+7 260 603
-7 714 172
+8 542 375
-8 893 242
+9 430 440
-9 950 803
+10 771 466
-10 226 868
+11 641 439
-11 564 642
+12 59 519
-12 408 862
+13 183 841
-13 678 609
+14 809 443
-14 494 28
+15 994 974
-15 237 957
PRECEDENCE_SECTION
+0 -0
+1 -1
+2 -2
+3 -3
+4 -4
+5 -5
+6 -6
+7 -7
+8 -8
+9 -9
+10 -10
+11 -11
+12 -12
+13 -13
+14 -14
+15 -15
EOF
